p cnf 114 266
-1 34 -2 114 0 
-3 -2 114 0 
-4 5 6 8 9 11 12 13 14 15 16 18 19 20 65 69 71 86 87 89 90 91 92 95 103 104 105 107 109 110 111 112 -2 114 0 
-5 4 6 8 9 11 12 13 14 15 16 18 19 20 65 69 71 86 87 89 90 91 92 95 103 104 105 107 109 110 111 112 -2 114 0 
-6 4 5 8 9 11 12 13 14 15 16 18 19 20 65 69 71 86 87 89 90 91 92 95 103 104 105 107 109 110 111 112 -2 114 0 
-7 17 80 114 0 
-8 4 5 6 9 11 12 13 14 15 16 18 19 20 65 69 71 86 87 89 90 91 92 95 103 104 105 107 109 110 111 112 114 0 
-9 4 5 6 8 11 12 13 14 15 16 18 19 20 65 69 71 86 87 89 90 91 92 95 103 104 105 107 109 110 111 112 114 0 
-10 114 0 
-11 4 5 6 8 9 12 13 14 15 16 18 19 20 65 69 71 86 87 89 90 91 92 95 103 104 105 107 109 110 111 112 114 0 
-12 4 5 6 8 9 11 13 14 15 16 18 19 20 65 69 71 86 87 89 90 91 92 95 103 104 105 107 109 110 111 112 114 0 
-13 4 5 6 8 9 11 12 14 15 16 18 19 20 65 69 71 86 87 89 90 91 92 95 103 104 105 107 109 110 111 112 114 0 
-14 4 5 6 8 9 11 12 13 15 16 18 19 20 65 69 71 86 87 89 90 91 92 95 103 104 105 107 109 110 111 112 114 0 
-15 4 5 6 8 9 11 12 13 14 16 18 19 20 65 69 71 86 87 89 90 91 92 95 103 104 105 107 109 110 111 112 114 0 
-16 4 5 6 8 9 11 12 13 14 15 18 19 20 65 69 71 86 87 89 90 91 92 95 103 104 105 107 109 110 111 112 114 0 
-17 7 80 114 0 
-18 4 5 6 8 9 11 12 13 14 15 16 19 20 65 69 71 86 87 89 90 91 92 95 103 104 105 107 109 110 111 112 114 0 
-19 4 5 6 8 9 11 12 13 14 15 16 18 20 65 69 71 86 87 89 90 91 92 95 103 104 105 107 109 110 111 112 114 0 
-20 4 5 6 8 9 11 12 13 14 15 16 18 19 65 69 71 86 87 89 90 91 92 95 103 104 105 107 109 110 111 112 114 0 
-21 114 0 
-22 114 0 
-23 82 114 0 
-24 114 0 
-25 114 0 
-26 114 0 
-27 114 0 
-28 114 0 
-29 114 0 
-30 35 114 0 
-31 114 0 
-22 -2 114 0 
-32 -30 35 114 0 
-33 -2 114 0 
-33 -30 35 114 0 
-34 1 -35 30 114 0 
-36 97 101 -37 38 56 99 114 0 
-24 -36 97 101 -38 37 56 99 114 0 
-39 84 114 0 
-40 114 0 
-24 -41 114 0 
-42 -2 114 0 
-43 -2 114 0 
-22 -30 35 114 0 
-25 -35 30 114 0 
-44 114 0 
-45 -2 114 0 
-32 -2 114 0 
-33 -46 -47 85 114 0 
-34 1 -2 114 0 
-2 114 0 
-48 88 93 -2 114 0 
-22 -30 35 -2 114 0 
-49 -2 114 0 
-24 -2 114 0 
-50 -2 114 0 
-51 114 0 
-52 -2 114 0 
-53 -2 114 0 
-49 -30 35 -2 114 0 
-45 -54 -2 114 0 
-24 -30 35 -2 114 0 
-45 -32 -2 114 0 
-55 -30 35 -2 114 0 
-33 -30 35 -2 114 0 
-56 37 38 99 114 0 
-57 114 0 
-58 -2 114 0 
-59 60 66 67 68 70 76 78 79 96 114 0 
-60 59 66 67 68 70 76 78 79 96 114 0 
-61 73 114 0 
-22 -46 -47 85 -2 114 0 
-33 -46 -47 85 -2 114 0 
-49 114 0 
-55 114 0 
-62 114 0 
-63 114 0 
-54 -2 114 0 
-64 108 114 0 
-65 4 5 6 8 9 11 12 13 14 15 16 18 19 20 69 71 86 87 89 90 91 92 95 103 104 105 107 109 110 111 112 114 0 
-66 59 60 67 68 70 76 78 79 96 114 0 
-67 59 60 66 68 70 76 78 79 96 114 0 
-68 59 60 66 67 70 76 78 79 96 114 0 
-69 4 5 6 8 9 11 12 13 14 15 16 18 19 20 65 71 86 87 89 90 91 92 95 103 104 105 107 109 110 111 112 114 0 
-70 59 60 66 67 68 76 78 79 96 114 0 
-71 4 5 6 8 9 11 12 13 14 15 16 18 19 20 65 69 86 87 89 90 91 92 95 103 104 105 107 109 110 111 112 114 0 
-36 97 101 -37 38 56 99 114 0 
-24 -36 97 101 -38 37 56 99 114 0 
-72 -2 114 0 
-39 84 114 0 
-40 114 0 
-24 -41 114 0 
-73 61 -2 114 0 
-74 -2 114 0 
-25 -2 114 0 
-75 114 0 
-76 59 60 66 67 68 70 78 79 96 114 0 
-77 114 0 
-78 59 60 66 67 68 70 76 79 96 114 0 
-3 114 0 
-79 59 60 66 67 68 70 76 78 96 114 0 
-80 7 17 114 0 
-24 -81 106 -82 23 -73 61 114 0 
-83 114 0 
-33 -22 -30 35 -2 114 0 
-30 35 -2 114 0 
-84 39 114 0 
-85 47 -2 114 0 
-84 39 114 0 
-86 4 5 6 8 9 11 12 13 14 15 16 18 19 20 65 69 71 87 89 90 91 92 95 103 104 105 107 109 110 111 112 114 0 
-5 4 6 8 9 11 12 13 14 15 16 18 19 20 65 69 71 86 87 89 90 91 92 95 103 104 105 107 109 110 111 112 114 0 
-87 4 5 6 8 9 11 12 13 14 15 16 18 19 20 65 69 71 86 89 90 91 92 95 103 104 105 107 109 110 111 112 114 0 
-88 48 93 114 0 
-89 4 5 6 8 9 11 12 13 14 15 16 18 19 20 65 69 71 86 87 90 91 92 95 103 104 105 107 109 110 111 112 114 0 
-4 5 6 8 9 11 12 13 14 15 16 18 19 20 65 69 71 86 87 89 90 91 92 95 103 104 105 107 109 110 111 112 114 0 
-90 4 5 6 8 9 11 12 13 14 15 16 18 19 20 65 69 71 86 87 89 91 92 95 103 104 105 107 109 110 111 112 114 0 
-91 4 5 6 8 9 11 12 13 14 15 16 18 19 20 65 69 71 86 87 89 90 92 95 103 104 105 107 109 110 111 112 114 0 
-92 4 5 6 8 9 11 12 13 14 15 16 18 19 20 65 69 71 86 87 89 90 91 95 103 104 105 107 109 110 111 112 114 0 
-93 48 88 -86 4 5 6 8 9 11 12 13 14 15 16 18 19 20 65 69 71 87 89 90 91 92 95 103 104 105 107 109 110 111 112 -45 -2 114 0 
-94 114 0 
-85 47 114 0 
-6 4 5 8 9 11 12 13 14 15 16 18 19 20 65 69 71 86 87 89 90 91 92 95 103 104 105 107 109 110 111 112 -33 114 0 
-48 88 93 -3 -22 114 0 
-95 4 5 6 8 9 11 12 13 14 15 16 18 19 20 65 69 71 86 87 89 90 91 92 103 104 105 107 109 110 111 112 -33 114 0 
-96 59 60 66 67 68 70 76 78 79 114 0 
-97 36 101 114 0 
-98 -76 59 60 66 67 68 70 78 79 96 -99 37 38 56 114 0 
-79 59 60 66 67 68 70 76 78 96 -100 114 0 
-101 36 97 -2 114 0 
-102 -2 114 0 
-43 114 0 
-62 -30 35 -2 114 0 
-53 -30 35 114 0 
-43 -30 35 114 0 
-72 -30 35 114 0 
-73 61 -30 35 114 0 
-48 88 93 -30 35 114 0 
-74 -30 35 114 0 
-49 -30 35 114 0 
-45 -33 -2 114 0 
-33 -22 -2 114 0 
-103 4 5 6 8 9 11 12 13 14 15 16 18 19 20 65 69 71 86 87 89 90 91 92 95 104 105 107 109 110 111 112 114 0 
-104 4 5 6 8 9 11 12 13 14 15 16 18 19 20 65 69 71 86 87 89 90 91 92 95 103 105 107 109 110 111 112 114 0 
-105 4 5 6 8 9 11 12 13 14 15 16 18 19 20 65 69 71 86 87 89 90 91 92 95 103 104 107 109 110 111 112 114 0 
-106 81 114 0 
-107 4 5 6 8 9 11 12 13 14 15 16 18 19 20 65 69 71 86 87 89 90 91 92 95 103 104 105 109 110 111 112 114 0 
-77 -2 114 0 
-108 64 -2 114 0 
-109 4 5 6 8 9 11 12 13 14 15 16 18 19 20 65 69 71 86 87 89 90 91 92 95 103 104 105 107 110 111 112 114 0 
-110 4 5 6 8 9 11 12 13 14 15 16 18 19 20 65 69 71 86 87 89 90 91 92 95 103 104 105 107 109 111 112 114 0 
-111 4 5 6 8 9 11 12 13 14 15 16 18 19 20 65 69 71 86 87 89 90 91 92 95 103 104 105 107 109 110 112 114 0 
-112 4 5 6 8 9 11 12 13 14 15 16 18 19 20 65 69 71 86 87 89 90 91 92 95 103 104 105 107 109 110 111 114 0 
-113 114 0 
6 56 94 0 
-50 68 80 0 
9 22 -51 0 
21 -49 -65 0 
-52 93 -98 0 
-3 51 105 0 
30 -90 111 0 
-42 57 -108 0 
8 59 99 0 
6 70 87 0 
-35 58 84 0 
36 81 97 0 
5 -48 -90 0 
16 -45 -63 0 
11 -25 109 0 
34 -45 94 0 
22 -46 112 0 
-7 45 -94 0 
70 96 -101 0 
47 -73 74 0 
11 24 45 0 
10 -85 -112 0 
33 -54 -58 0 
-14 77 108 0 
24 75 -86 0 
-50 96 -97 0 
-20 -54 73 0 
18 29 51 0 
5 -39 104 0 
-7 62 -97 0 
10 39 109 0 
-19 48 -91 0 
3 -11 -57 0 
-44 101 104 0 
7 46 -60 0 
-6 7 -65 0 
-45 -84 -85 0 
85 100 103 0 
-51 -52 -103 0 
43 -83 93 0 
26 44 -98 0 
13 -69 -104 0 
-33 75 83 0 
-15 50 53 0 
-21 -104 113 0 
50 78 111 0 
-62 77 -99 0 
-10 41 112 0 
2 -72 96 0 
3 49 61 0 
21 -63 -68 0 
-60 80 -88 0 
13 20 -105 0 
40 57 89 0 
-23 -57 -112 0 
7 91 -94 0 
-52 71 -88 0 
18 53 74 0 
-8 -33 109 0 
29 -39 -44 0 
-12 33 -38 0 
25 42 66 0 
-2 52 -110 0 
15 -24 81 0 
-2 -46 72 0 
-7 -36 61 0 
53 97 -107 0 
14 -58 102 0 
32 45 -92 0 
-13 -19 109 0 
11 93 -97 0 
13 -25 114 0 
-22 33 72 0 
1 -36 -84 0 
31 79 -97 0 
-17 -27 -39 0 
31 39 58 0 
69 100 -107 0 
5 -83 -107 0 
-46 78 -104 0 
-38 -75 113 0 
24 -66 -67 0 
2 -92 -114 0 
13 -71 -84 0 
-24 -39 -87 0 
-32 -45 -90 0 
29 -103 -110 0 
-11 46 -113 0 
-30 48 87 0 
-15 20 38 0 
-1 -4 -26 0 
-34 77 -78 0 
5 -36 -40 0 
-7 -33 105 0 
69 99 -102 0 
-13 23 36 0 
13 -27 48 0 
2 -48 86 0 
22 -53 78 0 
-19 51 65 0 
-58 96 -113 0 
77 -105 111 0 
-11 59 -110 0 
-2 -87 88 0 
54 67 -110 0 
66 67 81 0 
-12 69 76 0 
83 83 -102 0 
53 -71 -80 0 
22 34 -104 0 
59 78 83 0 
-4 -68 81 0 
74 103 110 0 
-7 -53 -82 0 
